(declare-fun v0 () Real) 
(declare-fun v1 () Real) 
(assert (= (+ 1 0 (* (- (* (/ 1 0) (+ (- (/ 1 11)) v0 v1)) (+ (- (/ 1 11)) v0)) 
(- (* (/ 1 (div (+ 1 v0 v1) 1)) (+ (- (/ 1 11)) v0 v1)) (+ (- (/ 1 11)) v0)))) v0)) 
(check-sat)     